50
120
100
97
97
95
93
87
87
86
82
82
78
76
76
75
74
71
68
66
65
63
59
59
58
58
57
52
51
46
46
46
43
42
42
41
41
41
38
37
36
36
32
32
31
30
27
25
22
22
22
21
